
Gurobi 11.0.1 (win64) logging started Thu May 16 19:13:33 2024

Set parameter LogFile to value "output/solver_log0.txt"
Gurobi Optimizer version 11.0.1 build v11.0.1rc0 (win64 - Windows 11.0 (22631.2))

CPU model: 11th Gen Intel(R) Core(TM) i7-1165G7 @ 2.80GHz, instruction set [SSE2|AVX|AVX2|AVX512]
Thread count: 4 physical cores, 8 logical processors, using up to 8 threads

Optimize a model with 6176 rows, 1705 columns and 117940 nonzeros
Model fingerprint: 0x5ead392b
Variable types: 568 continuous, 1137 integer (1137 binary)
Coefficient statistics:
  Matrix range     [4e-01, 1e+05]
  Objective range  [1e+00, 1e+02]
  Bounds range     [1e+00, 1e+00]
  RHS range        [1e-02, 1e+05]

User MIP start produced solution with objective 71702.9 (0.01s)
User MIP start produced solution with objective 72718.4 (0.01s)
User MIP start produced solution with objective 72718.4 (0.01s)
Loaded user MIP start with objective 72718.4

Presolve removed 894 rows and 501 columns
Presolve time: 0.14s
Presolved: 5282 rows, 1204 columns, 101733 nonzeros
Variable types: 524 continuous, 680 integer (675 binary)

Root relaxation: objective 9.147946e+04, 2334 iterations, 0.13 seconds (0.25 work units)

    Nodes    |    Current Node    |     Objective Bounds      |     Work
 Expl Unexpl |  Obj  Depth IntInf | Incumbent    BestBd   Gap | It/Node Time

     0     0 91479.4568    0   65 72718.4263 91479.4568  25.8%     -    0s
     0     0 89708.2030    0  118 72718.4263 89708.2030  23.4%     -    0s
     0     0 89311.3681    0  115 72718.4263 89311.3681  22.8%     -    0s
     0     0 88210.0135    0  178 72718.4263 88210.0135  21.3%     -    1s
     0     0 88197.4277    0  178 72718.4263 88197.4277  21.3%     -    1s
     0     0 88197.4277    0  178 72718.4263 88197.4277  21.3%     -    1s
     0     0 87613.7967    0  210 72718.4263 87613.7967  20.5%     -    1s
     0     0 86507.8473    0  173 72718.4263 86507.8473  19.0%     -    1s
     0     0 86507.8473    0  174 72718.4263 86507.8473  19.0%     -    1s
     0     0 86507.8473    0  172 72718.4263 86507.8473  19.0%     -    1s
     0     0 86507.8473    0  177 72718.4263 86507.8473  19.0%     -    2s
H    0     0                    73109.595935 86507.8473  18.3%     -    2s
     0     0 86507.8473    0  160 73109.5959 86507.8473  18.3%     -    2s
     0     0 86507.8473    0  155 73109.5959 86507.8473  18.3%     -    2s
     0     0 86507.8473    0  156 73109.5959 86507.8473  18.3%     -    2s
     0     0 86507.8473    0  177 73109.5959 86507.8473  18.3%     -    2s
     0     0 86507.8473    0  180 73109.5959 86507.8473  18.3%     -    2s
     0     0 86507.8473    0  188 73109.5959 86507.8473  18.3%     -    2s
     0     0 86507.8473    0  179 73109.5959 86507.8473  18.3%     -    2s
     0     0 86507.8473    0  179 73109.5959 86507.8473  18.3%     -    2s
     0     0 86507.8473    0  192 73109.5959 86507.8473  18.3%     -    3s
     0     0 86152.0448    0  192 73109.5959 86152.0448  17.8%     -    3s
     0     0 86152.0448    0  180 73109.5959 86152.0448  17.8%     -    3s
     0     0 86152.0448    0  183 73109.5959 86152.0448  17.8%     -    3s
     0     0 86152.0448    0  171 73109.5959 86152.0448  17.8%     -    3s
     0     0 86152.0448    0  173 73109.5959 86152.0448  17.8%     -    3s
     0     0 86152.0448    0  167 73109.5959 86152.0448  17.8%     -    3s
     0     0 86152.0448    0  184 73109.5959 86152.0448  17.8%     -    3s
     0     0 86152.0448    0  193 73109.5959 86152.0448  17.8%     -    3s
     0     0 86152.0448    0  193 73109.5959 86152.0448  17.8%     -    3s
     0     0 86152.0448    0  179 73109.5959 86152.0448  17.8%     -    3s
     0     0 86152.0448    0  175 73109.5959 86152.0448  17.8%     -    4s
     0     0 86152.0448    0  173 73109.5959 86152.0448  17.8%     -    4s
     0     0 86152.0448    0  196 73109.5959 86152.0448  17.8%     -    4s
     0     0 86152.0448    0  186 73109.5959 86152.0448  17.8%     -    4s
     0     2 86152.0448    0  186 73109.5959 86152.0448  17.8%     -    4s
     1     4 86152.0448    1  174 73109.5959 86152.0448  17.8%  1563    5s
H   27    31                    74017.385324 86152.0448  16.4%   873    6s
H  125    80                    74163.938577 86152.0448  16.2%   415    8s
   571   271 75933.6213    6  118 74163.9386 86152.0448  16.2%   128   10s
H 1216   639                    74204.363337 86152.0448  16.1%  98.8   14s
H 1219   617                    74994.782189 86152.0448  14.9%  98.6   14s
  1414   756 83957.0648   59   93 74994.7822 86152.0448  14.9%  92.4   15s
  1501   759 82614.1944   44   81 74994.7822 86152.0448  14.9%  90.1   20s
  1511   766 84356.2076   33   91 74994.7822 86152.0448  14.9%  89.5   25s
  1600   812 84429.2942   21  115 74994.7822 86152.0409  14.9%   120   30s
  1997   851 82443.3532   61   83 74994.7822 86152.0409  14.9%   113   35s
H 2030   801                    75146.768447 86152.0409  14.6%   112   35s
H 2194   752                    75211.353760 86152.0409  14.5%   106   36s
H 2229   719                    76338.138147 86152.0409  12.9%   106   37s
H 2289   690                    76417.940356 86152.0409  12.7%   104   38s
  2306   719 infeasible  102      76417.9404 86152.0409  12.7%   104   40s
H 2460   673                    76714.802918 86152.0409  12.3%   100   43s
H 2463   642                    77605.152510 86152.0409  11.0%   100   43s
  2537   638     cutoff  140      77605.1525 86151.9889  11.0%   100   46s
  3494   802 84901.2911   28  130 77605.1525 86151.9649  11.0%  91.2   57s
H 3498   622                    80779.798670 86151.9649  6.65%  91.1   57s
  3881   884 infeasible   33      80779.7987 86151.9610  6.65%  90.8   60s

Cutting planes:
  Gomory: 2
  Implied bound: 3
  Projected implied bound: 8
  MIR: 19
  Flow cover: 17
  RLT: 2
  Relax-and-lift: 12

Explored 3988 nodes (373524 simplex iterations) in 60.02 seconds (119.31 work units)
Thread count was 8 (of 8 available processors)

Solution count 10: 80779.8 77605.2 76714.8 ... 74163.9

Time limit reached
Best objective 8.077979866958e+04, best bound 8.615196102514e+04, gap 6.6504%
